XYZ.pcell: Cu15Al7                      
   1.00000000000000     
     4.1354804951137494    7.1554366620165393    0.0000000000000000
     0.0000000000000000    7.1554366620165393    4.8906347201023381
     4.1354804951137494    0.0000000000000000    4.8906347201023381
   Cu   Al
    15     7
Direct
  0.7601664986417739  0.2398335013582260  0.2398335013582260
  0.4910906015755656  0.5089093984244346  0.5089093984244346
  0.2383481648528203  0.7616518351471797  0.7616518351471797
  0.2496089845824574  0.2503910154175426  0.2503910154175426
  0.7496089845824574  0.7503910154175426  0.7503910154175426
  0.9956044948587999  0.5043955051412001  0.5043955051412001
  0.4956044948587999  0.0043955051412002  0.0043955051412002
  0.3044080911462566  0.0438170221532402  0.6955919088537433
  0.9561829778467597  0.6955919088537433  0.0438170221532402
  0.6225037945120816  0.7175539824469302  0.3774962054879183
  0.2824460175530699  0.3774962054879183  0.7175539824469302
  0.9205232534393560  0.2654899255016816  0.5147690228972078
  0.2992177981617474  0.5147690228972078  0.2654899255016816
  0.4852309771027920  0.7007822018382527  0.0794767465606441
  0.7345100744983182  0.0794767465606441  0.7007822018382527
  0.0044734287766711  0.9955265712233290  0.9955265712233290
 -0.0026629712834808  0.3525591692153980  0.0026629712834809
  0.6474408307846020  0.0026629712834809  0.3525591692153980
  0.2147659076393539  0.9629772443096501  0.3277760039357709
  0.4944808441152180  0.3277760039357709  0.9629772443096501
  0.6722239960642292  0.5055191558847819  0.7852340923606391
  0.0370227556903500  0.7852340923606391  0.5055191558847819
 
  0.00000000E+00  0.00000000E+00  0.00000000E+00
  0.00000000E+00  0.00000000E+00  0.00000000E+00
  0.00000000E+00  0.00000000E+00  0.00000000E+00
  0.00000000E+00  0.00000000E+00  0.00000000E+00
  0.00000000E+00  0.00000000E+00  0.00000000E+00
  0.00000000E+00  0.00000000E+00  0.00000000E+00
  0.00000000E+00  0.00000000E+00  0.00000000E+00
  0.00000000E+00  0.00000000E+00  0.00000000E+00
  0.00000000E+00  0.00000000E+00  0.00000000E+00
  0.00000000E+00  0.00000000E+00  0.00000000E+00
  0.00000000E+00  0.00000000E+00  0.00000000E+00
  0.00000000E+00  0.00000000E+00  0.00000000E+00
  0.00000000E+00  0.00000000E+00  0.00000000E+00
  0.00000000E+00  0.00000000E+00  0.00000000E+00
  0.00000000E+00  0.00000000E+00  0.00000000E+00
  0.00000000E+00  0.00000000E+00  0.00000000E+00
  0.00000000E+00  0.00000000E+00  0.00000000E+00
  0.00000000E+00  0.00000000E+00  0.00000000E+00
  0.00000000E+00  0.00000000E+00  0.00000000E+00
  0.00000000E+00  0.00000000E+00  0.00000000E+00
  0.00000000E+00  0.00000000E+00  0.00000000E+00
  0.00000000E+00  0.00000000E+00  0.00000000E+00
