XYZ: Cu2Al3                             
   1.00000000000000     
     4.1253394221730364    0.0000000000000000    0.0000000000000000
    -2.0626697110865182    3.5726487388972115    0.0000000000000000
     0.0000000000000000    0.0000000000000000    5.0238174567975387
   Cu   Al
     2     3
Direct
  0.3333333300000021  0.6666666699999979  0.8408049327483504
  0.6666666699999979  0.3333333300000021  0.1591950672516492
  0.0000000000000000  0.0000000000000000  0.0000000000000000
  0.3333333300000021  0.6666666699999979  0.3514284093491904
  0.6666666699999979  0.3333333300000021  0.6485715906508097
 
  0.00000000E+00  0.00000000E+00  0.00000000E+00
  0.00000000E+00  0.00000000E+00  0.00000000E+00
  0.00000000E+00  0.00000000E+00  0.00000000E+00
  0.00000000E+00  0.00000000E+00  0.00000000E+00
  0.00000000E+00  0.00000000E+00  0.00000000E+00
