XYZ: Cu8Al16                            
   1.00000000000000     
     4.8583594096504745    0.0000000000000000    0.0000000000000000
     0.0000000000000000    8.5436526956003984    0.0000000000000000
     0.0000000000000000    0.0000000000000000    8.5431095208395806
   Cu   Al
     8    16
Direct
  0.2500000000000000  0.2500000000000000  0.2500000000000000
  0.7500000000000000  0.7500000000000000  0.2500000000000000
  0.2500000000000000  0.7500000000000000  0.7500000000000000
  0.7500000000000000  0.2500000000000000  0.7500000000000000
  0.7500000000000000  0.7500000000000000  0.7500000000000000
  0.2500000000000000  0.2500000000000000  0.7500000000000000
  0.7500000000000000  0.2500000000000000  0.2500000000000000
  0.2500000000000000  0.7500000000000000  0.2500000000000000
  0.0000000000000000  0.3417290564541332  0.0000000000000000
  0.0000000000000000  0.6582709435458669  0.0000000000000000
  0.0000000000000000  0.8417290564541331  0.5000000000000000
  0.0000000000000000  0.1582709435458669  0.5000000000000000
  0.5000000000000000  0.3417290564541332  0.5000000000000000
  0.5000000000000000  0.6582709435458669  0.5000000000000000
  0.5000000000000000  0.8417290564541331  0.0000000000000000
  0.5000000000000000  0.1582709435458669  0.0000000000000000
  0.0000000000000000  0.0000000000000000  0.1582983625239993
  0.0000000000000000  0.0000000000000000  0.8417016374760006
  0.0000000000000000  0.5000000000000000  0.6582983625239994
  0.0000000000000000  0.5000000000000000  0.3417016374760006
  0.5000000000000000  0.0000000000000000  0.6582983625239994
  0.5000000000000000  0.0000000000000000  0.3417016374760006
  0.5000000000000000  0.5000000000000000  0.1582983625239993
  0.5000000000000000  0.5000000000000000  0.8417016374760006
 
  0.00000000E+00  0.00000000E+00  0.00000000E+00
  0.00000000E+00  0.00000000E+00  0.00000000E+00
  0.00000000E+00  0.00000000E+00  0.00000000E+00
  0.00000000E+00  0.00000000E+00  0.00000000E+00
  0.00000000E+00  0.00000000E+00  0.00000000E+00
  0.00000000E+00  0.00000000E+00  0.00000000E+00
  0.00000000E+00  0.00000000E+00  0.00000000E+00
  0.00000000E+00  0.00000000E+00  0.00000000E+00
  0.00000000E+00  0.00000000E+00  0.00000000E+00
  0.00000000E+00  0.00000000E+00  0.00000000E+00
  0.00000000E+00  0.00000000E+00  0.00000000E+00
  0.00000000E+00  0.00000000E+00  0.00000000E+00
  0.00000000E+00  0.00000000E+00  0.00000000E+00
  0.00000000E+00  0.00000000E+00  0.00000000E+00
  0.00000000E+00  0.00000000E+00  0.00000000E+00
  0.00000000E+00  0.00000000E+00  0.00000000E+00
  0.00000000E+00  0.00000000E+00  0.00000000E+00
  0.00000000E+00  0.00000000E+00  0.00000000E+00
  0.00000000E+00  0.00000000E+00  0.00000000E+00
  0.00000000E+00  0.00000000E+00  0.00000000E+00
  0.00000000E+00  0.00000000E+00  0.00000000E+00
  0.00000000E+00  0.00000000E+00  0.00000000E+00
  0.00000000E+00  0.00000000E+00  0.00000000E+00
  0.00000000E+00  0.00000000E+00  0.00000000E+00
