XYZ: Cu1                                
   1.00000000000000     
     1.8010422605258465    1.8010422605258465    0.0000000000000000
     0.0000000000000000    1.8010422605258465    1.8010422605258465
     1.8010422605258465    0.0000000000000000    1.8010422605258465
   Cu
     1
Direct
  0.0000000000000000  0.0000000000000000  0.0000000000000000
 
  0.00000000E+00  0.00000000E+00  0.00000000E+00
