XYZ.2x2x2: Cu12Al4                      
   1.00000000000000     
     5.7076887005372816    0.0403492264587496    0.0000000000000000
     0.0403492264587496    5.7076887005372816    0.0000000000000000
     0.0000000000000000    0.0000000000000000    6.0086837671279989
   Cu   Al
    12     4
Direct
 -0.0018502117597346  0.4988608520810500  0.0000000000000000
  0.2518502117597347  0.7511391479189501  0.2500000000000000
 -0.0018502117597346  0.4988608520810500  0.5000000000000000
  0.2518502117597347  0.7511391479189501  0.7500000000000000
  0.4988608520810500 -0.0018502117597346  0.0000000000000000
  0.7511391479189501  0.2518502117597347  0.2500000000000000
  0.4988608520810500 -0.0018502117597346  0.5000000000000000
  0.7511391479189501  0.2518502117597347  0.7500000000000000
  0.5062837416417486  0.5062837416417486  0.0000000000000000
  0.7437162583582514  0.7437162583582514  0.2500000000000000
  0.5062837416417486  0.5062837416417486  0.5000000000000000
  0.7437162583582514  0.7437162583582514  0.7500000000000000
 -0.0167277176391142 -0.0167277176391142  0.0000000000000000
  0.2667277176391142  0.2667277176391142  0.2500000000000000
 -0.0167277176391142 -0.0167277176391142  0.5000000000000000
  0.2667277176391142  0.2667277176391142  0.7500000000000000
 
  0.00000000E+00  0.00000000E+00  0.00000000E+00
  0.00000000E+00  0.00000000E+00  0.00000000E+00
  0.00000000E+00  0.00000000E+00  0.00000000E+00
  0.00000000E+00  0.00000000E+00  0.00000000E+00
  0.00000000E+00  0.00000000E+00  0.00000000E+00
  0.00000000E+00  0.00000000E+00  0.00000000E+00
  0.00000000E+00  0.00000000E+00  0.00000000E+00
  0.00000000E+00  0.00000000E+00  0.00000000E+00
  0.00000000E+00  0.00000000E+00  0.00000000E+00
  0.00000000E+00  0.00000000E+00  0.00000000E+00
  0.00000000E+00  0.00000000E+00  0.00000000E+00
  0.00000000E+00  0.00000000E+00  0.00000000E+00
  0.00000000E+00  0.00000000E+00  0.00000000E+00
  0.00000000E+00  0.00000000E+00  0.00000000E+00
  0.00000000E+00  0.00000000E+00  0.00000000E+00
  0.00000000E+00  0.00000000E+00  0.00000000E+00
