XYZ: Cu3Al1                             
   1.00000000000000     
     2.9065414625402393    2.9065414625402393    0.0000000000000000
     0.0000000000000000    2.9065414625402393    2.9065414625402393
     2.9065414625402393    0.0000000000000000    2.9065414625402393
   Cu   Al
     3     1
Direct
  0.5000000000000000  0.5000000000000000  0.5000000000000000
  0.2500000000000000  0.2500000000000000  0.2500000000000000
  0.7500000000000000  0.7500000000000000  0.7500000000000000
  0.0000000000000000  0.0000000000000000  0.0000000000000000
 
  0.00000000E+00  0.00000000E+00  0.00000000E+00
  0.00000000E+00  0.00000000E+00  0.00000000E+00
  0.00000000E+00  0.00000000E+00  0.00000000E+00
  0.00000000E+00  0.00000000E+00  0.00000000E+00
