XYZ: Cu36Al16                           
   1.00000000000000     
     8.6789690760098903    0.0000000000000000    0.0000000000000000
     0.0000000000000000    8.6789690760098903    0.0000000000000000
     0.0000000000000000    0.0000000000000000    8.6789690760098903
   Cu   Al
    36    16
Direct
  0.8303576724672894  0.8303576724672894  0.8303576724672894
  0.8303576724672894  0.1696423275327105  0.1696423275327105
  0.1696423275327105  0.1696423275327105  0.8303576724672894
  0.1696423275327105  0.8303576724672894  0.1696423275327105
  0.3252825813594235  0.3252825813594235  0.3252825813594235
  0.3252825813594235  0.6747174186405764  0.6747174186405764
  0.6747174186405764  0.6747174186405764  0.3252825813594235
  0.6747174186405764  0.3252825813594235  0.6747174186405764
  0.6059752210014206  0.6059752210014206  0.6059752210014206
  0.6059752210014206  0.3940247789985795  0.3940247789985795
  0.3940247789985795  0.3940247789985795  0.6059752210014206
  0.3940247789985795  0.6059752210014206  0.3940247789985795
  0.3557462689534287  0.0000000000000000  0.0000000000000000
  0.0000000000000000  0.6442537310465714  0.0000000000000000
  0.6442537310465714  0.0000000000000000  0.0000000000000000
  0.0000000000000000  0.3557462689534287  0.0000000000000000
  0.0000000000000000  0.0000000000000000  0.3557462689534287
  0.0000000000000000  0.0000000000000000  0.6442537310465714
  0.8552216658889290  0.5000000000000000  0.5000000000000000
  0.5000000000000000  0.1447783341110710  0.5000000000000000
  0.1447783341110710  0.5000000000000000  0.5000000000000000
  0.5000000000000000  0.8552216658889290  0.5000000000000000
  0.5000000000000000  0.5000000000000000  0.8552216658889290
  0.5000000000000000  0.5000000000000000  0.1447783341110710
  0.3158300355545164  0.3158300355545164  0.0310268032722092
  0.3158300355545164  0.6841699644454836  0.9689731967277908
  0.6841699644454836  0.6841699644454836  0.0310268032722092
  0.6841699644454836  0.3158300355545164  0.9689731967277908
  0.6841699644454836  0.0310268032722092  0.6841699644454836
  0.6841699644454836  0.9689731967277908  0.3158300355545164
  0.9689731967277908  0.6841699644454836  0.3158300355545164
  0.0310268032722092  0.6841699644454836  0.6841699644454836
  0.0310268032722092  0.3158300355545164  0.3158300355545164
  0.3158300355545164  0.0310268032722092  0.3158300355545164
  0.9689731967277908  0.3158300355545164  0.6841699644454836
  0.3158300355545164  0.9689731967277908  0.6841699644454836
  0.1205348600699091  0.1205348600699091  0.1205348600699091
  0.1205348600699091  0.8794651399300909  0.8794651399300909
  0.8794651399300909  0.8794651399300909  0.1205348600699091
  0.8794651399300909  0.1205348600699091  0.8794651399300909
  0.8098874327328570  0.8098874327328570  0.5344020896787890
  0.8098874327328570  0.1901125672671428  0.4655979103212111
  0.1901125672671428  0.1901125672671428  0.5344020896787890
  0.1901125672671428  0.8098874327328570  0.4655979103212111
  0.1901125672671428  0.5344020896787890  0.1901125672671428
  0.1901125672671428  0.4655979103212111  0.8098874327328570
  0.4655979103212111  0.1901125672671428  0.8098874327328570
  0.5344020896787890  0.1901125672671428  0.1901125672671428
  0.5344020896787890  0.8098874327328570  0.8098874327328570
  0.8098874327328570  0.5344020896787890  0.8098874327328570
  0.4655979103212111  0.8098874327328570  0.1901125672671428
  0.8098874327328570  0.4655979103212111  0.1901125672671428
 
  0.00000000E+00  0.00000000E+00  0.00000000E+00
  0.00000000E+00  0.00000000E+00  0.00000000E+00
  0.00000000E+00  0.00000000E+00  0.00000000E+00
  0.00000000E+00  0.00000000E+00  0.00000000E+00
  0.00000000E+00  0.00000000E+00  0.00000000E+00
  0.00000000E+00  0.00000000E+00  0.00000000E+00
  0.00000000E+00  0.00000000E+00  0.00000000E+00
  0.00000000E+00  0.00000000E+00  0.00000000E+00
  0.00000000E+00  0.00000000E+00  0.00000000E+00
  0.00000000E+00  0.00000000E+00  0.00000000E+00
  0.00000000E+00  0.00000000E+00  0.00000000E+00
  0.00000000E+00  0.00000000E+00  0.00000000E+00
  0.00000000E+00  0.00000000E+00  0.00000000E+00
  0.00000000E+00  0.00000000E+00  0.00000000E+00
  0.00000000E+00  0.00000000E+00  0.00000000E+00
  0.00000000E+00  0.00000000E+00  0.00000000E+00
  0.00000000E+00  0.00000000E+00  0.00000000E+00
  0.00000000E+00  0.00000000E+00  0.00000000E+00
  0.00000000E+00  0.00000000E+00  0.00000000E+00
  0.00000000E+00  0.00000000E+00  0.00000000E+00
  0.00000000E+00  0.00000000E+00  0.00000000E+00
  0.00000000E+00  0.00000000E+00  0.00000000E+00
  0.00000000E+00  0.00000000E+00  0.00000000E+00
  0.00000000E+00  0.00000000E+00  0.00000000E+00
  0.00000000E+00  0.00000000E+00  0.00000000E+00
  0.00000000E+00  0.00000000E+00  0.00000000E+00
  0.00000000E+00  0.00000000E+00  0.00000000E+00
  0.00000000E+00  0.00000000E+00  0.00000000E+00
  0.00000000E+00  0.00000000E+00  0.00000000E+00
  0.00000000E+00  0.00000000E+00  0.00000000E+00
  0.00000000E+00  0.00000000E+00  0.00000000E+00
  0.00000000E+00  0.00000000E+00  0.00000000E+00
  0.00000000E+00  0.00000000E+00  0.00000000E+00
  0.00000000E+00  0.00000000E+00  0.00000000E+00
  0.00000000E+00  0.00000000E+00  0.00000000E+00
  0.00000000E+00  0.00000000E+00  0.00000000E+00
  0.00000000E+00  0.00000000E+00  0.00000000E+00
  0.00000000E+00  0.00000000E+00  0.00000000E+00
  0.00000000E+00  0.00000000E+00  0.00000000E+00
  0.00000000E+00  0.00000000E+00  0.00000000E+00
  0.00000000E+00  0.00000000E+00  0.00000000E+00
  0.00000000E+00  0.00000000E+00  0.00000000E+00
  0.00000000E+00  0.00000000E+00  0.00000000E+00
  0.00000000E+00  0.00000000E+00  0.00000000E+00
  0.00000000E+00  0.00000000E+00  0.00000000E+00
  0.00000000E+00  0.00000000E+00  0.00000000E+00
  0.00000000E+00  0.00000000E+00  0.00000000E+00
  0.00000000E+00  0.00000000E+00  0.00000000E+00
  0.00000000E+00  0.00000000E+00  0.00000000E+00
  0.00000000E+00  0.00000000E+00  0.00000000E+00
  0.00000000E+00  0.00000000E+00  0.00000000E+00
  0.00000000E+00  0.00000000E+00  0.00000000E+00
