XYZ: Cu10Al10                           
   1.00000000000000     
    12.0414556623766487    0.0000000000000000   -0.0682844139006056
     0.0000000000000000    4.0964554408052125    0.0000000000000000
     3.9214414853107242    0.0000000000000000    5.6255420319256606
   Cu   Al
    10    10
Direct
  0.0000000000000000  0.0000000000000000  0.0000000000000000
  0.5000000000000000  0.5000000000000000  0.0000000000000000
  0.2589825630394607  0.0000000000000000  0.7591422967645017
  0.7410174369605391  0.0000000000000000  0.2408577032354983
  0.7589825630394609  0.5000000000000000  0.7591422967645017
  0.2410174369605393  0.5000000000000000  0.2408577032354983
  0.1094381812038073  0.0000000000000000  0.2270929963789320
  0.8905618187961929  0.0000000000000000  0.7729070036210680
  0.6094381812038071  0.5000000000000000  0.2270929963789320
  0.3905618187961927  0.5000000000000000  0.7729070036210680
  0.0000000000000000  0.5000000000000000  0.5000000000000000
  0.5000000000000000  0.0000000000000000  0.5000000000000000
  0.1553365953908348  0.0000000000000000  0.5395831810453129
  0.8446634046091654  0.0000000000000000  0.4604168189546870
  0.6553365953908346  0.5000000000000000  0.5395831810453129
  0.3446634046091652  0.5000000000000000  0.4604168189546870
  0.3771980153417603  0.0000000000000000  0.0091691294233732
  0.6228019846582398  0.0000000000000000  0.9908308705766270
  0.8771980153417602  0.5000000000000000  0.0091691294233732
  0.1228019846582397  0.5000000000000000  0.9908308705766270
 
  0.00000000E+00  0.00000000E+00  0.00000000E+00
  0.00000000E+00  0.00000000E+00  0.00000000E+00
  0.00000000E+00  0.00000000E+00  0.00000000E+00
  0.00000000E+00  0.00000000E+00  0.00000000E+00
  0.00000000E+00  0.00000000E+00  0.00000000E+00
  0.00000000E+00  0.00000000E+00  0.00000000E+00
  0.00000000E+00  0.00000000E+00  0.00000000E+00
  0.00000000E+00  0.00000000E+00  0.00000000E+00
  0.00000000E+00  0.00000000E+00  0.00000000E+00
  0.00000000E+00  0.00000000E+00  0.00000000E+00
  0.00000000E+00  0.00000000E+00  0.00000000E+00
  0.00000000E+00  0.00000000E+00  0.00000000E+00
  0.00000000E+00  0.00000000E+00  0.00000000E+00
  0.00000000E+00  0.00000000E+00  0.00000000E+00
  0.00000000E+00  0.00000000E+00  0.00000000E+00
  0.00000000E+00  0.00000000E+00  0.00000000E+00
  0.00000000E+00  0.00000000E+00  0.00000000E+00
  0.00000000E+00  0.00000000E+00  0.00000000E+00
  0.00000000E+00  0.00000000E+00  0.00000000E+00
  0.00000000E+00  0.00000000E+00  0.00000000E+00
