XYZ: Cu16Al10                           
   1.00000000000000     
    -4.3872360115333837    4.3872360115333837    4.3872360115333837
     4.3872360115333837   -4.3872360115333837    4.3872360115333837
     4.3872360115333837    4.3872360115333837   -4.3872360115333837
   Cu   Al
    16    10
Direct
  0.2149184128790566  0.2149184128790566  0.2149184128790566
  0.7850815871209434  0.0000000000000000  0.0000000000000000
  0.0000000000000000  0.0000000000000000  0.7850815871209434
  0.0000000000000000  0.7850815871209434  0.0000000000000000
  0.3422889400875784  0.3422889400875785  0.6294805958585351
  0.6577110599124217  0.2871916557709569  0.0000000000000000
  0.7128083442290433  0.7128083442290433  0.3705194041414647
  0.2871916557709569  0.6577110599124217  0.0000000000000000
  0.7128083442290433  0.3705194041414647  0.7128083442290433
  0.2871916557709569  0.0000000000000000  0.6577110599124217
  0.0000000000000000  0.2871916557709569  0.6577110599124217
  0.3705194041414647  0.7128083442290433  0.7128083442290433
  0.6294805958585351  0.3422889400875785  0.3422889400875785
  0.3422889400875785  0.6294805958585351  0.3422889400875784
  0.0000000000000000  0.6577110599124217  0.2871916557709569
  0.6577110599124217  0.0000000000000000  0.2871916557709569
  0.6362747608641851  0.6362747608641851  0.6362747608641851
  0.3637252391358148  0.0000000000000000  0.0000000000000000
  0.0000000000000000  0.0000000000000000  0.3637252391358148
  0.0000000000000000  0.3637252391358148  0.0000000000000000
  0.0000000000000000  0.3525086938266854  0.3525086938266854
  0.6474913061733146  0.0000000000000000  0.6474913061733146
  0.0000000000000000  0.6474913061733146  0.6474913061733146
  0.3525086938266854  0.0000000000000000  0.3525086938266854
  0.3525086938266854  0.3525086938266854  0.0000000000000000
  0.6474913061733146  0.6474913061733146  0.0000000000000000
 
  0.00000000E+00  0.00000000E+00  0.00000000E+00
  0.00000000E+00  0.00000000E+00  0.00000000E+00
  0.00000000E+00  0.00000000E+00  0.00000000E+00
  0.00000000E+00  0.00000000E+00  0.00000000E+00
  0.00000000E+00  0.00000000E+00  0.00000000E+00
  0.00000000E+00  0.00000000E+00  0.00000000E+00
  0.00000000E+00  0.00000000E+00  0.00000000E+00
  0.00000000E+00  0.00000000E+00  0.00000000E+00
  0.00000000E+00  0.00000000E+00  0.00000000E+00
  0.00000000E+00  0.00000000E+00  0.00000000E+00
  0.00000000E+00  0.00000000E+00  0.00000000E+00
  0.00000000E+00  0.00000000E+00  0.00000000E+00
  0.00000000E+00  0.00000000E+00  0.00000000E+00
  0.00000000E+00  0.00000000E+00  0.00000000E+00
  0.00000000E+00  0.00000000E+00  0.00000000E+00
  0.00000000E+00  0.00000000E+00  0.00000000E+00
  0.00000000E+00  0.00000000E+00  0.00000000E+00
  0.00000000E+00  0.00000000E+00  0.00000000E+00
  0.00000000E+00  0.00000000E+00  0.00000000E+00
  0.00000000E+00  0.00000000E+00  0.00000000E+00
  0.00000000E+00  0.00000000E+00  0.00000000E+00
  0.00000000E+00  0.00000000E+00  0.00000000E+00
  0.00000000E+00  0.00000000E+00  0.00000000E+00
  0.00000000E+00  0.00000000E+00  0.00000000E+00
  0.00000000E+00  0.00000000E+00  0.00000000E+00
  0.00000000E+00  0.00000000E+00  0.00000000E+00
