XYZ: Cu2Al2                             
   1.00000000000000     
     3.6834553694247396    0.0000000000000000    0.0000000000000000
    -1.8417276847123698    3.1899659234805982    0.0000000000000000
     0.0000000000000000    0.0000000000000000    5.1314339571141447
   Cu   Al
     2     2
Direct
  0.0000000000000000  0.0000000000000000  0.0000000000000000
  0.0000000000000000  0.0000000000000000  0.5000000000000000
  0.3333333300000021  0.6666666699999979  0.2500000000000000
  0.6666666699999979  0.3333333300000021  0.7500000000000000
 
  0.00000000E+00  0.00000000E+00  0.00000000E+00
  0.00000000E+00  0.00000000E+00  0.00000000E+00
  0.00000000E+00  0.00000000E+00  0.00000000E+00
  0.00000000E+00  0.00000000E+00  0.00000000E+00
