XYZ: Cu3Vac1Al2                         
   1.00000000000000     
     4.0419329060482774    0.0000000000000000    0.0000000000000000
    -2.0209664530241387    3.5004165769465274    0.0000000000000000
     0.0000000000000000    0.0000000000000000    4.9657134775302278
   Cu   Al
     3     2
Direct
  0.0000000000000000  0.0000000000000000  0.0024551600227432
  0.0000000000000000  0.0000000000000000  0.4975448399772567
  0.3333333300000021  0.6666666699999979  0.7500000000000000
  0.3333333300000021  0.6666666699999979  0.2500000000000000
  0.6666666699999979  0.3333333300000021  0.7500000000000000
 
  0.00000000E+00  0.00000000E+00  0.00000000E+00
  0.00000000E+00  0.00000000E+00  0.00000000E+00
  0.00000000E+00  0.00000000E+00  0.00000000E+00
  0.00000000E+00  0.00000000E+00  0.00000000E+00
  0.00000000E+00  0.00000000E+00  0.00000000E+00
