XYZ: Al4                                
   1.00000000000000     
     4.0436788852062326    0.0000000000000000    0.0000000000000000
     0.0000000000000000    4.0436788852062326    0.0000000000000000
     0.0000000000000000    0.0000000000000000    4.0436788852062326
   Al
     4
Direct
  0.0000000000000000  0.0000000000000000  0.0000000000000000
  0.0000000000000000  0.5000000000000000  0.5000000000000000
  0.5000000000000000  0.0000000000000000  0.5000000000000000
  0.5000000000000000  0.5000000000000000  0.0000000000000000
 
  0.00000000E+00  0.00000000E+00  0.00000000E+00
  0.00000000E+00  0.00000000E+00  0.00000000E+00
  0.00000000E+00  0.00000000E+00  0.00000000E+00
  0.00000000E+00  0.00000000E+00  0.00000000E+00
