XYZ: Cu4Al8                             
   1.00000000000000     
     6.0448351986886903    0.0000000000000000    0.0000000000000000
     0.0000000000000000    6.0448351986886903    0.0000000000000000
     0.0000000000000000    0.0000000000000000    4.8504274529295373
   Cu   Al
     4     8
Direct
  0.0000000000000000  0.0000000000000000  0.2500000000000000
  0.0000000000000000  0.0000000000000000  0.7500000000000000
  0.5000000000000000  0.5000000000000000  0.7500000000000000
  0.5000000000000000  0.5000000000000000  0.2500000000000000
  0.1579874961188797  0.6579874961188796  0.0000000000000000
  0.3420125038811204  0.1579874961188797  0.0000000000000000
  0.8420125038811204  0.3420125038811204  0.0000000000000000
  0.6579874961188796  0.8420125038811204  0.0000000000000000
  0.1579874961188797  0.3420125038811204  0.5000000000000000
  0.8420125038811204  0.6579874961188796  0.5000000000000000
  0.6579874961188796  0.1579874961188797  0.5000000000000000
  0.3420125038811204  0.8420125038811204  0.5000000000000000
 
  0.00000000E+00  0.00000000E+00  0.00000000E+00
  0.00000000E+00  0.00000000E+00  0.00000000E+00
  0.00000000E+00  0.00000000E+00  0.00000000E+00
  0.00000000E+00  0.00000000E+00  0.00000000E+00
  0.00000000E+00  0.00000000E+00  0.00000000E+00
  0.00000000E+00  0.00000000E+00  0.00000000E+00
  0.00000000E+00  0.00000000E+00  0.00000000E+00
  0.00000000E+00  0.00000000E+00  0.00000000E+00
  0.00000000E+00  0.00000000E+00  0.00000000E+00
  0.00000000E+00  0.00000000E+00  0.00000000E+00
  0.00000000E+00  0.00000000E+00  0.00000000E+00
  0.00000000E+00  0.00000000E+00  0.00000000E+00
